c number of pigeons = 11 ; number of holes = 10
p cnf 110 1111
1 2 3 4 5 6 7 8 9 10 0
11 12 13 14 15 16 17 18 19 20 0
21 22 23 24 25 26 27 28 29 30 0
31 32 33 34 35 36 37 38 39 40 0
41 42 43 44 45 46 47 48 49 50 0
51 52 53 54 55 56 57 58 59 60 0
61 62 63 64 65 66 67 68 69 70 0
71 72 73 74 75 76 77 78 79 80 0
81 82 83 84 85 86 87 88 89 90 0
91 92 93 94 95 96 97 98 99 100 0
101 102 103 104 105 106 107 108 109 110 0
-1 -11 0
-1 -21 0
-1 -31 0
-1 -41 0
-1 -51 0
-1 -61 0
-1 -71 0
-1 -81 0
-1 -91 0
-1 -101 0
-11 -1 0
-11 -21 0
-11 -31 0
-11 -41 0
-11 -51 0
-11 -61 0
-11 -71 0
-11 -81 0
-11 -91 0
-11 -101 0
-21 -1 0
-21 -11 0
-21 -31 0
-21 -41 0
-21 -51 0
-21 -61 0
-21 -71 0
-21 -81 0
-21 -91 0
-21 -101 0
-31 -1 0
-31 -11 0
-31 -21 0
-31 -41 0
-31 -51 0
-31 -61 0
-31 -71 0
-31 -81 0
-31 -91 0
-31 -101 0
-41 -1 0
-41 -11 0
-41 -21 0
-41 -31 0
-41 -51 0
-41 -61 0
-41 -71 0
-41 -81 0
-41 -91 0
-41 -101 0
-51 -1 0
-51 -11 0
-51 -21 0
-51 -31 0
-51 -41 0
-51 -61 0
-51 -71 0
-51 -81 0
-51 -91 0
-51 -101 0
-61 -1 0
-61 -11 0
-61 -21 0
-61 -31 0
-61 -41 0
-61 -51 0
-61 -71 0
-61 -81 0
-61 -91 0
-61 -101 0
-71 -1 0
-71 -11 0
-71 -21 0
-71 -31 0
-71 -41 0
-71 -51 0
-71 -61 0
-71 -81 0
-71 -91 0
-71 -101 0
-81 -1 0
-81 -11 0
-81 -21 0
-81 -31 0
-81 -41 0
-81 -51 0
-81 -61 0
-81 -71 0
-81 -91 0
-81 -101 0
-91 -1 0
-91 -11 0
-91 -21 0
-91 -31 0
-91 -41 0
-91 -51 0
-91 -61 0
-91 -71 0
-91 -81 0
-91 -101 0
-101 -1 0
-101 -11 0
-101 -21 0
-101 -31 0
-101 -41 0
-101 -51 0
-101 -61 0
-101 -71 0
-101 -81 0
-101 -91 0
-2 -12 0
-2 -22 0
-2 -32 0
-2 -42 0
-2 -52 0
-2 -62 0
-2 -72 0
-2 -82 0
-2 -92 0
-2 -102 0
-12 -2 0
-12 -22 0
-12 -32 0
-12 -42 0
-12 -52 0
-12 -62 0
-12 -72 0
-12 -82 0
-12 -92 0
-12 -102 0
-22 -2 0
-22 -12 0
-22 -32 0
-22 -42 0
-22 -52 0
-22 -62 0
-22 -72 0
-22 -82 0
-22 -92 0
-22 -102 0
-32 -2 0
-32 -12 0
-32 -22 0
-32 -42 0
-32 -52 0
-32 -62 0
-32 -72 0
-32 -82 0
-32 -92 0
-32 -102 0
-42 -2 0
-42 -12 0
-42 -22 0
-42 -32 0
-42 -52 0
-42 -62 0
-42 -72 0
-42 -82 0
-42 -92 0
-42 -102 0
-52 -2 0
-52 -12 0
-52 -22 0
-52 -32 0
-52 -42 0
-52 -62 0
-52 -72 0
-52 -82 0
-52 -92 0
-52 -102 0
-62 -2 0
-62 -12 0
-62 -22 0
-62 -32 0
-62 -42 0
-62 -52 0
-62 -72 0
-62 -82 0
-62 -92 0
-62 -102 0
-72 -2 0
-72 -12 0
-72 -22 0
-72 -32 0
-72 -42 0
-72 -52 0
-72 -62 0
-72 -82 0
-72 -92 0
-72 -102 0
-82 -2 0
-82 -12 0
-82 -22 0
-82 -32 0
-82 -42 0
-82 -52 0
-82 -62 0
-82 -72 0
-82 -92 0
-82 -102 0
-92 -2 0
-92 -12 0
-92 -22 0
-92 -32 0
-92 -42 0
-92 -52 0
-92 -62 0
-92 -72 0
-92 -82 0
-92 -102 0
-102 -2 0
-102 -12 0
-102 -22 0
-102 -32 0
-102 -42 0
-102 -52 0
-102 -62 0
-102 -72 0
-102 -82 0
-102 -92 0
-3 -13 0
-3 -23 0
-3 -33 0
-3 -43 0
-3 -53 0
-3 -63 0
-3 -73 0
-3 -83 0
-3 -93 0
-3 -103 0
-13 -3 0
-13 -23 0
-13 -33 0
-13 -43 0
-13 -53 0
-13 -63 0
-13 -73 0
-13 -83 0
-13 -93 0
-13 -103 0
-23 -3 0
-23 -13 0
-23 -33 0
-23 -43 0
-23 -53 0
-23 -63 0
-23 -73 0
-23 -83 0
-23 -93 0
-23 -103 0
-33 -3 0
-33 -13 0
-33 -23 0
-33 -43 0
-33 -53 0
-33 -63 0
-33 -73 0
-33 -83 0
-33 -93 0
-33 -103 0
-43 -3 0
-43 -13 0
-43 -23 0
-43 -33 0
-43 -53 0
-43 -63 0
-43 -73 0
-43 -83 0
-43 -93 0
-43 -103 0
-53 -3 0
-53 -13 0
-53 -23 0
-53 -33 0
-53 -43 0
-53 -63 0
-53 -73 0
-53 -83 0
-53 -93 0
-53 -103 0
-63 -3 0
-63 -13 0
-63 -23 0
-63 -33 0
-63 -43 0
-63 -53 0
-63 -73 0
-63 -83 0
-63 -93 0
-63 -103 0
-73 -3 0
-73 -13 0
-73 -23 0
-73 -33 0
-73 -43 0
-73 -53 0
-73 -63 0
-73 -83 0
-73 -93 0
-73 -103 0
-83 -3 0
-83 -13 0
-83 -23 0
-83 -33 0
-83 -43 0
-83 -53 0
-83 -63 0
-83 -73 0
-83 -93 0
-83 -103 0
-93 -3 0
-93 -13 0
-93 -23 0
-93 -33 0
-93 -43 0
-93 -53 0
-93 -63 0
-93 -73 0
-93 -83 0
-93 -103 0
-103 -3 0
-103 -13 0
-103 -23 0
-103 -33 0
-103 -43 0
-103 -53 0
-103 -63 0
-103 -73 0
-103 -83 0
-103 -93 0
-4 -14 0
-4 -24 0
-4 -34 0
-4 -44 0
-4 -54 0
-4 -64 0
-4 -74 0
-4 -84 0
-4 -94 0
-4 -104 0
-14 -4 0
-14 -24 0
-14 -34 0
-14 -44 0
-14 -54 0
-14 -64 0
-14 -74 0
-14 -84 0
-14 -94 0
-14 -104 0
-24 -4 0
-24 -14 0
-24 -34 0
-24 -44 0
-24 -54 0
-24 -64 0
-24 -74 0
-24 -84 0
-24 -94 0
-24 -104 0
-34 -4 0
-34 -14 0
-34 -24 0
-34 -44 0
-34 -54 0
-34 -64 0
-34 -74 0
-34 -84 0
-34 -94 0
-34 -104 0
-44 -4 0
-44 -14 0
-44 -24 0
-44 -34 0
-44 -54 0
-44 -64 0
-44 -74 0
-44 -84 0
-44 -94 0
-44 -104 0
-54 -4 0
-54 -14 0
-54 -24 0
-54 -34 0
-54 -44 0
-54 -64 0
-54 -74 0
-54 -84 0
-54 -94 0
-54 -104 0
-64 -4 0
-64 -14 0
-64 -24 0
-64 -34 0
-64 -44 0
-64 -54 0
-64 -74 0
-64 -84 0
-64 -94 0
-64 -104 0
-74 -4 0
-74 -14 0
-74 -24 0
-74 -34 0
-74 -44 0
-74 -54 0
-74 -64 0
-74 -84 0
-74 -94 0
-74 -104 0
-84 -4 0
-84 -14 0
-84 -24 0
-84 -34 0
-84 -44 0
-84 -54 0
-84 -64 0
-84 -74 0
-84 -94 0
-84 -104 0
-94 -4 0
-94 -14 0
-94 -24 0
-94 -34 0
-94 -44 0
-94 -54 0
-94 -64 0
-94 -74 0
-94 -84 0
-94 -104 0
-104 -4 0
-104 -14 0
-104 -24 0
-104 -34 0
-104 -44 0
-104 -54 0
-104 -64 0
-104 -74 0
-104 -84 0
-104 -94 0
-5 -15 0
-5 -25 0
-5 -35 0
-5 -45 0
-5 -55 0
-5 -65 0
-5 -75 0
-5 -85 0
-5 -95 0
-5 -105 0
-15 -5 0
-15 -25 0
-15 -35 0
-15 -45 0
-15 -55 0
-15 -65 0
-15 -75 0
-15 -85 0
-15 -95 0
-15 -105 0
-25 -5 0
-25 -15 0
-25 -35 0
-25 -45 0
-25 -55 0
-25 -65 0
-25 -75 0
-25 -85 0
-25 -95 0
-25 -105 0
-35 -5 0
-35 -15 0
-35 -25 0
-35 -45 0
-35 -55 0
-35 -65 0
-35 -75 0
-35 -85 0
-35 -95 0
-35 -105 0
-45 -5 0
-45 -15 0
-45 -25 0
-45 -35 0
-45 -55 0
-45 -65 0
-45 -75 0
-45 -85 0
-45 -95 0
-45 -105 0
-55 -5 0
-55 -15 0
-55 -25 0
-55 -35 0
-55 -45 0
-55 -65 0
-55 -75 0
-55 -85 0
-55 -95 0
-55 -105 0
-65 -5 0
-65 -15 0
-65 -25 0
-65 -35 0
-65 -45 0
-65 -55 0
-65 -75 0
-65 -85 0
-65 -95 0
-65 -105 0
-75 -5 0
-75 -15 0
-75 -25 0
-75 -35 0
-75 -45 0
-75 -55 0
-75 -65 0
-75 -85 0
-75 -95 0
-75 -105 0
-85 -5 0
-85 -15 0
-85 -25 0
-85 -35 0
-85 -45 0
-85 -55 0
-85 -65 0
-85 -75 0
-85 -95 0
-85 -105 0
-95 -5 0
-95 -15 0
-95 -25 0
-95 -35 0
-95 -45 0
-95 -55 0
-95 -65 0
-95 -75 0
-95 -85 0
-95 -105 0
-105 -5 0
-105 -15 0
-105 -25 0
-105 -35 0
-105 -45 0
-105 -55 0
-105 -65 0
-105 -75 0
-105 -85 0
-105 -95 0
-6 -16 0
-6 -26 0
-6 -36 0
-6 -46 0
-6 -56 0
-6 -66 0
-6 -76 0
-6 -86 0
-6 -96 0
-6 -106 0
-16 -6 0
-16 -26 0
-16 -36 0
-16 -46 0
-16 -56 0
-16 -66 0
-16 -76 0
-16 -86 0
-16 -96 0
-16 -106 0
-26 -6 0
-26 -16 0
-26 -36 0
-26 -46 0
-26 -56 0
-26 -66 0
-26 -76 0
-26 -86 0
-26 -96 0
-26 -106 0
-36 -6 0
-36 -16 0
-36 -26 0
-36 -46 0
-36 -56 0
-36 -66 0
-36 -76 0
-36 -86 0
-36 -96 0
-36 -106 0
-46 -6 0
-46 -16 0
-46 -26 0
-46 -36 0
-46 -56 0
-46 -66 0
-46 -76 0
-46 -86 0
-46 -96 0
-46 -106 0
-56 -6 0
-56 -16 0
-56 -26 0
-56 -36 0
-56 -46 0
-56 -66 0
-56 -76 0
-56 -86 0
-56 -96 0
-56 -106 0
-66 -6 0
-66 -16 0
-66 -26 0
-66 -36 0
-66 -46 0
-66 -56 0
-66 -76 0
-66 -86 0
-66 -96 0
-66 -106 0
-76 -6 0
-76 -16 0
-76 -26 0
-76 -36 0
-76 -46 0
-76 -56 0
-76 -66 0
-76 -86 0
-76 -96 0
-76 -106 0
-86 -6 0
-86 -16 0
-86 -26 0
-86 -36 0
-86 -46 0
-86 -56 0
-86 -66 0
-86 -76 0
-86 -96 0
-86 -106 0
-96 -6 0
-96 -16 0
-96 -26 0
-96 -36 0
-96 -46 0
-96 -56 0
-96 -66 0
-96 -76 0
-96 -86 0
-96 -106 0
-106 -6 0
-106 -16 0
-106 -26 0
-106 -36 0
-106 -46 0
-106 -56 0
-106 -66 0
-106 -76 0
-106 -86 0
-106 -96 0
-7 -17 0
-7 -27 0
-7 -37 0
-7 -47 0
-7 -57 0
-7 -67 0
-7 -77 0
-7 -87 0
-7 -97 0
-7 -107 0
-17 -7 0
-17 -27 0
-17 -37 0
-17 -47 0
-17 -57 0
-17 -67 0
-17 -77 0
-17 -87 0
-17 -97 0
-17 -107 0
-27 -7 0
-27 -17 0
-27 -37 0
-27 -47 0
-27 -57 0
-27 -67 0
-27 -77 0
-27 -87 0
-27 -97 0
-27 -107 0
-37 -7 0
-37 -17 0
-37 -27 0
-37 -47 0
-37 -57 0
-37 -67 0
-37 -77 0
-37 -87 0
-37 -97 0
-37 -107 0
-47 -7 0
-47 -17 0
-47 -27 0
-47 -37 0
-47 -57 0
-47 -67 0
-47 -77 0
-47 -87 0
-47 -97 0
-47 -107 0
-57 -7 0
-57 -17 0
-57 -27 0
-57 -37 0
-57 -47 0
-57 -67 0
-57 -77 0
-57 -87 0
-57 -97 0
-57 -107 0
-67 -7 0
-67 -17 0
-67 -27 0
-67 -37 0
-67 -47 0
-67 -57 0
-67 -77 0
-67 -87 0
-67 -97 0
-67 -107 0
-77 -7 0
-77 -17 0
-77 -27 0
-77 -37 0
-77 -47 0
-77 -57 0
-77 -67 0
-77 -87 0
-77 -97 0
-77 -107 0
-87 -7 0
-87 -17 0
-87 -27 0
-87 -37 0
-87 -47 0
-87 -57 0
-87 -67 0
-87 -77 0
-87 -97 0
-87 -107 0
-97 -7 0
-97 -17 0
-97 -27 0
-97 -37 0
-97 -47 0
-97 -57 0
-97 -67 0
-97 -77 0
-97 -87 0
-97 -107 0
-107 -7 0
-107 -17 0
-107 -27 0
-107 -37 0
-107 -47 0
-107 -57 0
-107 -67 0
-107 -77 0
-107 -87 0
-107 -97 0
-8 -18 0
-8 -28 0
-8 -38 0
-8 -48 0
-8 -58 0
-8 -68 0
-8 -78 0
-8 -88 0
-8 -98 0
-8 -108 0
-18 -8 0
-18 -28 0
-18 -38 0
-18 -48 0
-18 -58 0
-18 -68 0
-18 -78 0
-18 -88 0
-18 -98 0
-18 -108 0
-28 -8 0
-28 -18 0
-28 -38 0
-28 -48 0
-28 -58 0
-28 -68 0
-28 -78 0
-28 -88 0
-28 -98 0
-28 -108 0
-38 -8 0
-38 -18 0
-38 -28 0
-38 -48 0
-38 -58 0
-38 -68 0
-38 -78 0
-38 -88 0
-38 -98 0
-38 -108 0
-48 -8 0
-48 -18 0
-48 -28 0
-48 -38 0
-48 -58 0
-48 -68 0
-48 -78 0
-48 -88 0
-48 -98 0
-48 -108 0
-58 -8 0
-58 -18 0
-58 -28 0
-58 -38 0
-58 -48 0
-58 -68 0
-58 -78 0
-58 -88 0
-58 -98 0
-58 -108 0
-68 -8 0
-68 -18 0
-68 -28 0
-68 -38 0
-68 -48 0
-68 -58 0
-68 -78 0
-68 -88 0
-68 -98 0
-68 -108 0
-78 -8 0
-78 -18 0
-78 -28 0
-78 -38 0
-78 -48 0
-78 -58 0
-78 -68 0
-78 -88 0
-78 -98 0
-78 -108 0
-88 -8 0
-88 -18 0
-88 -28 0
-88 -38 0
-88 -48 0
-88 -58 0
-88 -68 0
-88 -78 0
-88 -98 0
-88 -108 0
-98 -8 0
-98 -18 0
-98 -28 0
-98 -38 0
-98 -48 0
-98 -58 0
-98 -68 0
-98 -78 0
-98 -88 0
-98 -108 0
-108 -8 0
-108 -18 0
-108 -28 0
-108 -38 0
-108 -48 0
-108 -58 0
-108 -68 0
-108 -78 0
-108 -88 0
-108 -98 0
-9 -19 0
-9 -29 0
-9 -39 0
-9 -49 0
-9 -59 0
-9 -69 0
-9 -79 0
-9 -89 0
-9 -99 0
-9 -109 0
-19 -9 0
-19 -29 0
-19 -39 0
-19 -49 0
-19 -59 0
-19 -69 0
-19 -79 0
-19 -89 0
-19 -99 0
-19 -109 0
-29 -9 0
-29 -19 0
-29 -39 0
-29 -49 0
-29 -59 0
-29 -69 0
-29 -79 0
-29 -89 0
-29 -99 0
-29 -109 0
-39 -9 0
-39 -19 0
-39 -29 0
-39 -49 0
-39 -59 0
-39 -69 0
-39 -79 0
-39 -89 0
-39 -99 0
-39 -109 0
-49 -9 0
-49 -19 0
-49 -29 0
-49 -39 0
-49 -59 0
-49 -69 0
-49 -79 0
-49 -89 0
-49 -99 0
-49 -109 0
-59 -9 0
-59 -19 0
-59 -29 0
-59 -39 0
-59 -49 0
-59 -69 0
-59 -79 0
-59 -89 0
-59 -99 0
-59 -109 0
-69 -9 0
-69 -19 0
-69 -29 0
-69 -39 0
-69 -49 0
-69 -59 0
-69 -79 0
-69 -89 0
-69 -99 0
-69 -109 0
-79 -9 0
-79 -19 0
-79 -29 0
-79 -39 0
-79 -49 0
-79 -59 0
-79 -69 0
-79 -89 0
-79 -99 0
-79 -109 0
-89 -9 0
-89 -19 0
-89 -29 0
-89 -39 0
-89 -49 0
-89 -59 0
-89 -69 0
-89 -79 0
-89 -99 0
-89 -109 0
-99 -9 0
-99 -19 0
-99 -29 0
-99 -39 0
-99 -49 0
-99 -59 0
-99 -69 0
-99 -79 0
-99 -89 0
-99 -109 0
-109 -9 0
-109 -19 0
-109 -29 0
-109 -39 0
-109 -49 0
-109 -59 0
-109 -69 0
-109 -79 0
-109 -89 0
-109 -99 0
-10 -20 0
-10 -30 0
-10 -40 0
-10 -50 0
-10 -60 0
-10 -70 0
-10 -80 0
-10 -90 0
-10 -100 0
-10 -110 0
-20 -10 0
-20 -30 0
-20 -40 0
-20 -50 0
-20 -60 0
-20 -70 0
-20 -80 0
-20 -90 0
-20 -100 0
-20 -110 0
-30 -10 0
-30 -20 0
-30 -40 0
-30 -50 0
-30 -60 0
-30 -70 0
-30 -80 0
-30 -90 0
-30 -100 0
-30 -110 0
-40 -10 0
-40 -20 0
-40 -30 0
-40 -50 0
-40 -60 0
-40 -70 0
-40 -80 0
-40 -90 0
-40 -100 0
-40 -110 0
-50 -10 0
-50 -20 0
-50 -30 0
-50 -40 0
-50 -60 0
-50 -70 0
-50 -80 0
-50 -90 0
-50 -100 0
-50 -110 0
-60 -10 0
-60 -20 0
-60 -30 0
-60 -40 0
-60 -50 0
-60 -70 0
-60 -80 0
-60 -90 0
-60 -100 0
-60 -110 0
-70 -10 0
-70 -20 0
-70 -30 0
-70 -40 0
-70 -50 0
-70 -60 0
-70 -80 0
-70 -90 0
-70 -100 0
-70 -110 0
-80 -10 0
-80 -20 0
-80 -30 0
-80 -40 0
-80 -50 0
-80 -60 0
-80 -70 0
-80 -90 0
-80 -100 0
-80 -110 0
-90 -10 0
-90 -20 0
-90 -30 0
-90 -40 0
-90 -50 0
-90 -60 0
-90 -70 0
-90 -80 0
-90 -100 0
-90 -110 0
-100 -10 0
-100 -20 0
-100 -30 0
-100 -40 0
-100 -50 0
-100 -60 0
-100 -70 0
-100 -80 0
-100 -90 0
-100 -110 0
-110 -10 0
-110 -20 0
-110 -30 0
-110 -40 0
-110 -50 0
-110 -60 0
-110 -70 0
-110 -80 0
-110 -90 0
-110 -100 0